
Log started (V11.0.0) Wed Apr 16 12:37:10 2008

Tried aggregator 1 time.
Reduced MIP has 110 rows, 1001 columns, and 2010 nonzeros.
Presolve time =    0.00 sec.
Clique table members: 100.
MIP emphasis: balance optimality and feasibility.
MIP search method: dynamic search.
Parallel mode: none, using 1 thread.
Root relaxation solution time =    0.01 sec.

        Nodes                                         Cuts/
   Node  Left     Objective  IInf  Best Integer     Best Node    ItCnt     Gap

*     0+    0                        14752.0000     1103.1824      178   92.52%
*     0+    0                         1135.0000     1103.1824      178    2.80%
      0     0     1104.0000    18     1135.0000      Fract: 7      194    2.73%
      0     0     1104.2692    25     1135.0000     Covers: 1      240    2.71%
*     0+    0                         1130.0000     1104.2692      240    2.28%
      0     0     1105.1738    33     1130.0000       Cuts: 7      261    2.20%
      0     0     1105.3477    38     1130.0000       Cuts: 8      273    2.18%
      0     0     1105.4311    43     1130.0000       Cuts: 4      285    2.17%
      0     0     1105.6456    44     1130.0000       Cuts: 5      305    2.16%
      0     0     1105.8656    38     1130.0000       Cuts: 2      325    2.14%
      0     0     1105.9115    45     1130.0000       Cuts: 4      339    2.13%
      0     0     1106.0087    43     1130.0000    MIRcuts: 1      363    2.12%
*     0+    0                         1123.0000     1106.0087      363    1.51%
*     0+    0                         1120.0000     1106.0087      363    1.25%
      0     2     1106.0087    43     1120.0000     1106.0087      363    1.25%
    100    83     1113.0000    18     1120.0000     1106.1876     2952    1.23%
    200   152     1108.0000    23     1120.0000     1107.0000     5577    1.16%
    300   219     1108.0000    27     1120.0000     1107.0000     8192    1.16%
    400   299     1108.0000    32     1120.0000     1107.0000    10584    1.16%
    500   376     1109.0000    26     1120.0000     1108.0000    15844    1.07%
*   521+  262                         1118.0000     1108.0000    16702    0.89%
    600   274     1114.0000    24     1118.0000     1108.0000    19575    0.89%
    700   277     1111.0000    29     1118.0000     1108.0000    25276    0.89%
    800   276     1111.0000    35     1118.0000     1108.0000    30895    0.89%
    900   320     1109.0000    40     1118.0000     1108.0000    36885    0.89%
   1000   402     1111.0000    32     1118.0000     1108.0000    44687    0.89%
Elapsed time =   7.09 sec. (tree size =  0.19 MB, solutions = 6)
   1100   481     1110.0000    36     1118.0000     1108.0000    56836    0.89%
   1200   570     1114.0000    21     1118.0000     1108.0000    60299    0.89%
*  1291+  626                         1117.0000     1108.0000    63552    0.81%
   1300   636     1112.0000    24     1117.0000     1108.0000    63596    0.81%
   1400   719     1111.0000    32     1117.0000     1108.0000    70565    0.81%
   1500   804     1112.0000    29     1117.0000     1108.0000    78557    0.81%
*  1591+  722                         1114.0000     1108.0000    83190    0.54%
   1600   729     1111.0000    30     1114.0000     1108.0000    84156    0.54%
   1700   811     1109.0000    53     1114.0000     1108.0000    89796    0.54%
   1800   891     1109.0000    51     1114.0000     1108.0000   100724    0.54%
   1900   978     1112.0000    25     1114.0000     1109.0000   107256    0.45%
   2000  1059     1112.0000    21     1114.0000     1109.0000   113600    0.45%
Elapsed time =  14.31 sec. (tree size =  0.54 MB, solutions = 8)
   2100  1134    infeasible           1114.0000     1109.0000   118053    0.45%
   2200  1218     1110.0000    31     1114.0000     1109.0000   127614    0.45%
   2300  1309     1112.0000    12     1114.0000     1109.0000   131212    0.45%
   2400  1394     1111.0000    31     1114.0000     1109.0000   135799    0.45%
   2500  1470     1113.0000    33     1114.0000     1109.0000   143557    0.45%
   2600  1538     1113.0000    46     1114.0000     1109.0000   153571    0.45%
   2700  1608     1111.0000    27     1114.0000     1109.0000   168621    0.45%
   2800  1674     1113.0000    28     1114.0000     1109.0000   182270    0.45%
*  2871+ 1313                         1113.0000     1109.0000   193561    0.36%
   2900  1330     1111.0000    51     1113.0000     1109.0000   198138    0.36%
   3000  1367     1111.0498    54     1113.0000     1109.0000   216267    0.36%
Elapsed time =  25.72 sec. (tree size =  0.70 MB, solutions = 9)
   3100  1411    infeasible           1113.0000     1109.0000   236062    0.36%
   3200  1460        cutoff           1113.0000     1109.0000   257142    0.36%
   3300  1512     1112.0000    36     1113.0000     1109.0000   277757    0.36%
   3400  1562     1111.9693    45     1113.0000     1109.0000   295770    0.36%
   3500  1633     1112.0000    29     1113.0000     1109.0000   315821    0.36%
   3600  1680     1111.0000    61     1113.0000     1109.0000   336219    0.36%
   3700  1736     1112.0000    31     1113.0000     1109.0000   355431    0.36%
   3800  1784     1110.8372    45     1113.0000     1109.0000   373991    0.36%
   3900  1838     1110.0000    41     1113.0000     1109.0000   393154    0.36%
   4000  1904     1111.0008    47     1113.0000     1109.0000   414459    0.36%
Elapsed time =  54.06 sec. (tree size =  0.98 MB, solutions = 9)
   4100  1942     1111.0000    16     1113.0000     1109.0000   433495    0.36%
*  4101+ 1197                         1112.0000     1109.0000   433534    0.27%
   4200  1255     1111.0000    29     1112.0000     1109.0000   450314    0.27%
   4300  1303     1110.0000    35     1112.0000     1109.0000   474010    0.27%
   4400  1359     1111.0000    33     1112.0000     1109.0000   497193    0.27%
   4500  1407    infeasible           1112.0000     1109.0000   521513    0.27%
   4600  1456        cutoff           1112.0000     1109.0000   545685    0.27%
   4700  1517     1111.0000    36     1112.0000     1109.0000   568976    0.27%
   4800  1571     1111.0000    35     1112.0000     1109.0000   592572    0.27%
   4900  1637     1111.0000    62     1112.0000     1109.0000   612508    0.27%
   5000  1694     1111.0000    28     1112.0000     1109.0000   636901    0.27%
Elapsed time =  90.55 sec. (tree size =  0.90 MB, solutions = 10)
   5100  1750     1111.0000    33     1112.0000     1109.0000   661753    0.27%
   5200  1826     1111.0000    35     1112.0000     1109.0000   678755    0.27%
   5300  1886     1111.0000    54     1112.0000     1109.0000   700049    0.27%
   5400  1919     1109.0955    76     1112.0000     1109.0239   722360    0.27%
   5500  1995     1110.0160    49     1112.0000     1109.1503   741128    0.26%
   5600  2046        cutoff           1112.0000     1109.9178   761573    0.19%
   5700  2089     1111.0000    42     1112.0000     1110.0000   779810    0.18%
   5800  2117     1111.0000    22     1112.0000     1110.0000   806280    0.18%
   5900  2128    infeasible           1112.0000     1110.0000   831137    0.18%
   6000  2119     1111.0000    66     1112.0000     1110.0000   855999    0.18%
Elapsed time = 127.13 sec. (tree size =  1.17 MB, solutions = 10)
   6100  2158     1110.6701    72     1112.0000     1110.0000   877114    0.18%
   6200  2126     1110.5736    48     1112.0000     1110.0000   906539    0.18%
   6300  2129     1111.0000    42     1112.0000     1110.0000   930237    0.18%
   6400  2179     1111.0000    27     1112.0000     1110.0000   950907    0.18%
   6500  2206     1110.0000    74     1112.0000     1110.0000   978285    0.18%
   6600  2271     1111.0000    50     1112.0000     1110.0000  1001616    0.18%
   6700  2290    infeasible           1112.0000     1110.0000  1026863    0.18%
   6800  2329     1111.0000    32     1112.0000     1110.0000  1049536    0.18%
   6900  2347     1111.0000    49     1112.0000     1110.0000  1073293    0.18%
   7000  2377     1111.0000    40     1112.0000     1110.0000  1097608    0.18%
Elapsed time = 171.11 sec. (tree size =  1.32 MB, solutions = 10)
   7100  2421     1111.0000    40     1112.0000     1110.0000  1122049    0.18%
   7200  2451     1110.5002    48     1112.0000     1110.0000  1146828    0.18%
   7300  2512     1111.0000    31     1112.0000     1110.0000  1160490    0.18%
   7400  2552     1111.0000    59     1112.0000     1110.0000  1184038    0.18%
   7500  2580     1111.0000    26     1112.0000     1110.0000  1209642    0.18%
   7600  2631     1111.0000    32     1112.0000     1110.0000  1229205    0.18%
   7700  2666    infeasible           1112.0000     1110.0000  1251342    0.18%
   7800  2710     1110.0065    48     1112.0000     1110.0000  1273483    0.18%
   7900  2726     1111.0000    47     1112.0000     1110.0000  1295981    0.18%
   8000  2769     1111.0000    46     1112.0000     1110.0000  1313447    0.18%
Elapsed time = 208.03 sec. (tree size =  1.54 MB, solutions = 10)
   8100  2797    infeasible           1112.0000     1110.0000  1334501    0.18%
   8200  2849     1111.0000    38     1112.0000     1110.0000  1358656    0.18%
   8300  2889     1111.0000    51     1112.0000     1110.0000  1382855    0.18%
   8400  2938     1111.0000    32     1112.0000     1110.0000  1404479    0.18%
*  8424   369      integral     0     1111.0000     1110.0000  1410460    0.09%
   8500   337        cutoff           1111.0000     1110.0000  1443675    0.09%
   8600   287    infeasible           1111.0000     1110.0000  1487379    0.09%
   8700   243     1110.0000    45     1111.0000     1110.0000  1530919    0.09%
   8800   236     1110.0000    48     1111.0000     1110.0000  1566317    0.09%
   8900   170        cutoff           1111.0000     1110.0000  1613137    0.09%
   9000   126        cutoff           1111.0000     1110.0000  1656557    0.09%
Elapsed time = 269.70 sec. (tree size =  0.13 MB, solutions = 11)
   9100    72     1110.0000    66     1111.0000     1110.0000  1701483    0.09%
   9200     2    infeasible           1111.0000     1110.0000  1747252    0.09%

Cover cuts applied:  525
Mixed integer rounding cuts applied:  16
Gomory fractional cuts applied:  9

Solution pool: 11 solutions saved.

MIP - Integer optimal solution:  Objective = 1.1110000000e+003
Solution time =  286.50 sec.  Iterations = 1747763  Nodes = 9203


Incumbent solution
Variable Name           Solution Value
Cmax                       1111.000000
X_1_7                         1.000000
X_2_4                         1.000000
X_3_4                         1.000000
X_4_5                         1.000000
X_5_3                         1.000000
X_6_2                         1.000000
X_7_2                         1.000000
X_8_3                         1.000000
X_9_10                        1.000000
X_10_9                        1.000000
X_11_9                        1.000000
X_12_9                        1.000000
X_13_1                        1.000000
X_14_2                        1.000000
X_15_10                       1.000000
X_16_5                        1.000000
X_17_7                        1.000000
X_18_10                       1.000000
X_19_8                        1.000000
X_20_5                        1.000000
X_21_4                        1.000000
X_22_1                        1.000000
X_23_2                        1.000000
X_24_10                       1.000000
X_25_2                        1.000000
X_26_4                        1.000000
X_27_8                        1.000000
X_28_5                        1.000000
X_29_3                        1.000000
X_30_6                        1.000000
X_31_6                        1.000000
X_32_8                        1.000000
X_33_8                        1.000000
X_34_10                       1.000000
X_35_7                        1.000000
X_36_3                        1.000000
X_37_1                        1.000000
X_38_5                        1.000000
X_39_9                        1.000000
X_40_9                        1.000000
X_41_8                        1.000000
X_42_1                        1.000000
X_43_2                        1.000000
X_44_10                       1.000000
X_45_9                        1.000000
X_46_5                        1.000000
X_47_4                        1.000000
X_48_9                        1.000000
X_49_7                        1.000000
X_50_6                        1.000000
X_51_8                        1.000000
X_52_2                        1.000000
X_53_6                        1.000000
X_54_3                        1.000000
X_55_6                        1.000000
X_56_1                        1.000000
X_57_1                        1.000000
X_58_7                        1.000000
X_59_6                        1.000000
X_60_7                        1.000000
X_61_1                        1.000000
X_62_5                        1.000000
X_63_10                       1.000000
X_64_3                        1.000000
X_65_10                       1.000000
X_66_3                        1.000000
X_67_3                        1.000000
X_68_6                        1.000000
X_69_2                        1.000000
X_70_1                        1.000000
X_71_7                        1.000000
X_72_10                       1.000000
X_73_7                        1.000000
X_74_10                       1.000000
X_75_8                        1.000000
X_76_4                        1.000000
X_77_5                        1.000000
X_78_1                        1.000000
X_79_3                        1.000000
X_80_7                        1.000000
X_81_9                        1.000000
X_82_4                        1.000000
X_83_6                        1.000000
X_84_2                        1.000000
X_85_4                        1.000000
X_86_6                        1.000000
X_87_8                        1.000000
X_88_2                        1.000000
X_89_8                        1.000000
X_90_1                        1.000000
X_91_5                        1.000000
X_92_7                        1.000000
X_93_9                        1.000000
X_94_4                        1.000000
X_95_6                        1.000000
X_96_9                        1.000000
X_97_5                        1.000000
X_98_3                        1.000000
X_99_8                        1.000000
X_100_4                       1.000000
All other variables in the range 1-1001 are 0.
